\* Master_masterlem *\
Minimize
OBJ: Phi + 5996.25 Y_(1,_1) + 9585 Y_(1,_2) + 13160 Y_(1,_3) + 6615 Y_(2,_1)
 + 10320 Y_(2,_2) + 9735 Y_(2,_3) + 13053.75 Y_(3,_1) + 12857.5 Y_(3,_2)
 + 15675 Y_(3,_3) + 3088.25 Yc_1 + 2991 Yc_2 + 2628.5 Yc_3
Subject To
_C1: Y_(1,_1) + Y_(1,_2) + Y_(1,_3) + Yc_1 + Ync_1 = 1
_C2: Y_(2,_1) + Y_(2,_2) + Y_(2,_3) + Yc_2 + Ync_2 = 1
_C3: Y_(3,_1) + Y_(3,_2) + Y_(3,_3) + Yc_3 + Ync_3 = 1
_C4: Yc_1 = 0
_C5: Yc_3 = 0
Binaries
Y_(1,_1)
Y_(1,_2)
Y_(1,_3)
Y_(2,_1)
Y_(2,_2)
Y_(2,_3)
Y_(3,_1)
Y_(3,_2)
Y_(3,_3)
Yc_1
Yc_2
Yc_3
Ync_1
Ync_2
Ync_3
End
